/* Objective function */
min: - 0.0054fpdi - 0.0054fpdo + 0.05apdi + 0.05apdo + 0.0002pi + 0.0002po - 0.5fsi - 0.5fso;

apdi = 0.0 hi + -0.0 li + 10.43423 ri + -0.00476 ci + -1.48659 si + 0.0 ti + 0.10986 fTempIi + 0.0041 ami + -118.45777;
asi = 0.0 hi + -0.0 li + -0.0 ri + 0.0 ci + 0.0 si + 0.0 ti + -0.0 fTempIi + 5e-05 ami + 0.00946;
aTempOi = 0.0 hi + 0.0 li + 0.29203 ri + -0.03074 ci + -0.04361 si + -0.0 ti + 0.77838 fTempIi + -0.00014 ami + 6.81083;
fpdi = 0.0 hi + -0.0 li + 23.39387 ri + -26.23092 ci + -0.0414 si + -0.0 ti + -1.23474 fTempIi + 0.00013 ami + 654.41271;
fsi = 0.0 hi + -0.0 li + -0.00014 ri + -0.06058 ci + 2e-05 si + -0.0 ti + 0.00052 fTempIi + -0.0 ami + 2.90375;
fTempOi = 0.0 hi + 0.0 li + -0.28929 ri + 0.03057 ci + 0.04319 si + -0.0 ti + 0.23788 fTempIi + -0.00013 ami + 9.84318;
pi = 0.0 hi + -0.0 li + 591.28333 ri + 3.125 ci + -59.36867 si + 0.0 ti + -0.0 fTempIi + -0.0 ami + 2974.77333;

apdo = 0.0 ho + -0.0 lo + 12.59854 ro + 0.00603 co + -1.8948 so + -0.0 to + 0.1258 fTempIo + 0.00486 amo + -156.87056;
aso = 0.0 ho + 0.0 lo + -0.0 ro + 0.0 co + 0.0 so + 0.0 to + 0.0 fTempIo + 5e-05 amo + 0.00946;
aTempOo = 0.0 ho + -0.0 lo + -0.32406 ro + 0.03651 co + 0.05823 so + 0.0 to + 0.7402 fTempIo + 0.00015 amo + -0.24119;
fpdo = 0.0 ho + -0.0 lo + 11.80235 ro + -10.45462 co + 0.0297 so + -0.0 to + -0.66499 fTempIo + -7e-05 amo + 339.80805;
fso = 0.0 ho + 0.0 lo + 0.00014 ro + -0.03678 co + -3e-05 so + -0.0 to + 0.00073 fTempIo + 0.0 amo + 2.26922;
fTempOo = 0.0 ho + -0.0 lo + 0.31935 ro + -0.03705 co + -0.05763 so + 0.0 to + 0.26736 fTempIo + 0.00013 amo + 12.541;
po = 0.0 ho + -0.0 lo + 469.85278 ro + 3.14 co + -40.1919 so + -0.0 to + 0.0 fTempIo + -0.0 amo + 1575.62032;

/* Variable bounds */
aTempOi > 18.6;
1 =r6i + r8i + r10i + r12i + r14i;
ri =6r6i + 8r8i + 10r10i + 12r12i + 14r14i;
1 =s30i + s40i + s50i + s60i;
si =30s30i + 40s40i + 50s50i + 60s60i;
ti = 3;
apdi > 100;
apdi < 300;
asi > 0;
asi < 3;
aTempOi > 5;
aTempOi < 25;
fpdi > 100;
fpdi < 300;
fsi > 0;
fsi < 1.25;
fTempOi > 5;
fTempOi < 25;
pi > 0;
ri > 6;
ri < 14;
ci > 1;
ci < 28;
si > 25;
si < 60;
ti > 1;
ti < 3;
fTempIi > 5;
fTempIi < 25;

/* aTempOo < 11.4; */
1 =r6o + r8o + r10o + r12o + r14o;
ro =6r6o + 8r8o + 10r10o + 12r12o + 14r14o;
1 =s25o + s30o + s40o;
so =25s25o + 30s30o + 40s40o;
to = 2;
apdo > 100;
apdo < 300;
aso > 0;
aso < 3;
aTempOo > 5;
aTempOo < 25;
fpdo > 100;
fpdo < 300;
fso > 0;
fso < 1.25;
fTempOo > 5;
fTempOo < 25;
po > 0;
ro > 6;
ro < 14;
co > 26;
co < 60;
so > 25;
so < 60;
to > 1;
to < 3;
fTempIo > 5;
fTempIo < 25;
int hi,li,si,ti,ci,ri,ami;
int ho,lo,so,to,co,ro,amo;
bin s25i,s30i,s40i,s50i,s60i,r6i,r8i,r10i,r12i,r14i;
bin s25o,s30o,s40o,s50o,s60o,r6o,r8o,r10o,r12o,r14o;
